161
100
5
40
100
72
22
25
4
81
12
27
55
23
18
24
74
2
1
87
5
20
20
34
44
21
7
29
25
11
81
66
19
95
52
45
21
71
40
69
4
7
14
49
61
79
76
69
41
4
44
6
31
65
50
28
48
55
39
19
5
13
80
6
100
10
27
9
2
88
98
91
46
9
54
9
21
5
21
3
67
7
45
98
50
3
54
21
56
45
75
86
19
25
66
5
15
93
2
15
23
50
94
29
73
14
36
8
51
8
34
1
48
9
43
98
64
77
48
3
16
22
5
73
31
10
79
59
1
53
52
3
76
60
19
1
50
36
20
26
24
85
50
30
36
30
3
6
14
34
78
4
2
26
24
4
94
40
10
2
35
16
70
